# Solution for model RAP
# Objective value = 1601
C0(0) 0
C1(0) 0
C2(0) 0
C3(0) 0
C4(0) 0
C5(0) 0
C6(0) 0
C7(0) 0
C8(0) 0
C9(0) 0
C10(0) 0
C11(0) 0
C12(0) 0
C13(0) 0
C14(0) 0
C15(0) 0
C16(0) 0
C17(0) 0
C18(0) 0
C19(0) 0
C20(0) 0
C21(0) 0
C22(0) 0
C23(0) 0
C24(0) 0
C25(0) 0
C26(0) 0
C27(0) 0
C28(0) 0
C29(0) 0
C30(0) 0
C31(0) 0
C32(0) 0
C33(0) 0
C34(0) 0
C35(0) 0
C36(0) 0
C37(0) 0
C38(0) 0
C39(0) 0
C40(0) 0
C41(0) 0
C42(0) 0
C43(0) 0
C44(0) 0
C45(0) 0
C46(0) 0
C47(0) 0
C48(0) 0
C49(0) 0
C50(0) 0
C51(0) 0
C52(0) 0
C53(0) 0
C54(0) 0
C55(0) 0
C56(0) 0
C57(0) 0
C58(0) 0
C59(0) 0
C60(0) 0
C61(0) 0
C62(0) 0
C63(0) 0
C64(0) 0
C65(0) 0
C66(0) 0
C67(0) 0
C68(0) 0
C69(0) 0
C70(0) 0
C71(0) 0
C72(0) 0
C73(0) 0
C74(0) 0
C75(0) 0
C76(0) 0
C77(0) 0
C78(0) 0
C79(0) 0
C80(0) 0
C81(0) 0
C82(0) 0
C83(0) 0
C84(0) 0
C85(0) 0
C86(0) 0
C87(0) 0
C88(0) 0
C89(0) 0
C90(0) 0
C91(0) 0
C92(0) 0
C93(0) 0
C94(0) 0
C95(0) 0
C96(0) 0
C97(0) 0
C98(0) 0
C99(0) 0
C100(0) 0
C101(0) 0
C102(0) 0
C103(0) 0
C104(0) 0
C105(0) 0
C106(0) 0
C107(0) 0
C108(0) 0
C109(0) 0
C110(0) 0
C111(0) 0
C112(0) 0
C113(0) 0
C114(0) 0
C115(0) 0
C116(0) 0
C117(0) 0
C118(0) 0
C119(0) 0
C120(0) 0
C121(0) 0
C122(0) 0
C123(0) 0
C124(0) 0
C125(0) 0
C126(0) 0
C127(0) 0
C128(0) 0
C129(0) 0
C130(0) 0
C131(0) 0
C132(0) 0
C133(0) 0
C134(0) 0
C135(0) 0
C136(0) 0
C137(0) 0
C138(0) 0
C139(0) 0
C140(0) 0
C141(0) 0
C142(0) 0
C143(0) 0
C144(0) 0
C145(0) 0
C146(0) 0
C147(0) 0
C148(0) 0
C149(0) 0
C150(0) 0
C151(0) 0
C152(0) 0
C153(0) 0
C154(0) 0
C155(0) 0
C156(0) 0
C157(0) 0
C158(0) 0
C159(0) 0
C160(0) 0
C161(0) 0
C162(0) 0
C163(0) 0
C164(0) 0
C165(0) 0
C166(0) 0
C167(0) 0
C168(0) 0
C169(0) 0
C170(0) 0
C171(0) 0
C172(0) 0
C173(0) 0
C174(0) 0
C175(0) 0
C176(0) 0
C177(0) 0
C178(0) 0
C179(0) 0
C180(0) 0
C181(0) 0
C182(0) 0
C183(0) 0
C184(0) 0
C185(0) 0
C186(0) 0
C187(0) 0
B188(7) 0
B189(7) 0
B190(9) 0
B191(7) 0
B192(9) 0
B193(9) 0
B194(9) 0
B195(9) 0
B196(9) 0
B197(9) 0
B198(9) 0
B199(7) 0
B200(9) 0
B201(9) 0
B202(7) 0
B203(9) 0
B204(9) 1
B205(9) 1
B206(9) 0
B207(9) 1
B208(7) 1
B209(9) 1
B210(9) 0
B211(9) 0
B212(9) 0
B213(9) 0
B214(9) 0
B215(9) 1
B216(9) 1
B217(9) 1
B218(9) 1
B219(9) 1
B220(9) 1
B221(9) 0
B222(9) 1
B223(9) 1
B224(9) 0
B225(9) 0
B226(9) 1
B227(9) 1
B228(9) 0
B229(7) 0
B230(7) 1
B231(7) 1
B232(7) 1
B233(7) 1
B234(7) 1
B235(7) 1
B236(7) 1
B237(9) 1
B238(7) 0
B239(9) 0
B240(9) 0
B241(9) 0
B242(9) 1
B243(9) 1
B244(9) 1
B245(9) 1
B246(7) 0
B247(9) 0
B248(9) 0
B249(7) 0
B250(9) 0
B251(9) 0
B252(9) 0
B253(9) 0
B254(9) 0
B255(7) 0
B256(9) 0
B257(9) 0
B258(9) 0
B259(9) 0
B260(9) 1
B261(9) 1
B262(9) 0
B263(9) 0
B264(9) 0
B265(9) 0
B266(9) 0
B267(9) 0
B268(9) 0
B269(9) 0
B270(9) 0
B271(9) 0
B272(9) 1
B273(9) 0
B274(9) 0
B275(9) 0
B276(7) 0
B277(7) 0
B278(7) 0
B279(7) 0
B280(7) 0
B281(7) 0
B282(7) 0
B283(7) 0
B284(9) 0
B285(7) 1
B286(9) 0
B287(9) 0
B288(9) 0
B289(9) 0
B290(9) 0
B291(9) 0
B292(9) 0
B293(7) 0
B294(9) 0
B295(9) 0
B296(7) 0
B297(9) 0
B298(9) 0
B299(9) 0
B300(9) 1
B301(9) 0
B302(7) 0
B303(9) 0
B304(9) 1
B305(9) 1
B306(9) 0
B307(9) 0
B308(9) 0
B309(9) 0
B310(9) 0
B311(9) 0
B312(9) 0
B313(9) 0
B314(9) 0
B315(9) 1
B316(9) 0
B317(9) 0
B318(9) 1
B319(9) 0
B320(9) 0
B321(9) 0
B322(9) 1
B323(7) 0
B324(7) 0
B325(7) 0
B326(7) 0
B327(7) 0
B328(7) 0
B329(7) 0
B330(7) 0
B331(9) 0
B332(7) 0
B333(9) 1
B334(9) 1
B335(9) 1
B336(9) 0
B337(9) 0
B338(9) 0
B339(9) 0
B340(7) 1
B341(9) 1
B342(9) 1
B343(7) 1
B344(9) 1
B345(9) 0
B346(9) 0
B347(9) 0
B348(9) 0
B349(7) 0
B350(9) 0
B351(9) 0
B352(9) 0
B353(9) 1
B354(9) 0
B355(9) 0
B356(9) 0
B357(9) 0
B358(9) 0
B359(9) 0
B360(9) 0
B361(9) 0
B362(9) 0
B363(9) 0
B364(9) 0
B365(9) 0
B366(9) 0
B367(9) 0
B368(9) 0
B369(9) 0
B370(7) 1
B371(7) 0
B372(7) 0
B373(7) 0
B374(7) 0
B375(7) 0
B376(2) 0
B377(2) 0
B378(2) 0
B379(2) 0
B380(2) 0
B381(2) 0
B382(2) 0
B383(2) 0
B384(2) 0
B385(2) 0
B386(2) 1
B387(2) 1
B388(2) 1
B389(2) 1
B390(2) 1
B391(2) 1
B392(2) 1
B393(2) 1
B394(2) 1
B395(2) 1
B396(2) 1
B397(2) 0
B398(2) 1
B399(2) 1
B400(2) 1
B401(2) 1
B402(2) 1
B403(2) 1
B404(2) 1
B405(2) 1
B406(2) 1
B407(2) 1
B408(2) 0
B409(2) 0
B410(2) 0
B411(2) 0
B412(2) 0
B413(2) 1
B414(2) 1
B415(2) 1
B416(2) 0
B417(2) 0
B418(2) 0
B419(2) 1
B420(2) 0
B421(2) 0
B422(2) 0
B423(2) 0
B424(2) 1
B425(2) 1
B426(2) 0
B427(2) 1
B428(2) 0
B429(2) 0
B430(2) 0
B431(2) 0
B432(2) 0
B433(2) 0
B434(2) 1
B435(2) 0
B436(2) 1
B437(2) 0
B438(2) 0
B439(2) 0
B440(2) 0
B441(2) 0
B442(2) 0
B443(2) 0
B444(2) 0
B445(2) 1
B446(2) 1
B447(2) 0
B448(2) 1
B449(2) 1
B450(2) 1
B451(2) 0
B452(2) 0
B453(2) 0
B454(2) 0
B455(2) 0
B456(2) 0
B457(2) 1
B458(2) 1
B459(2) 1
B460(2) 0
B461(2) 0
B462(2) 0
B463(2) 0
B464(2) 1
B465(2) 1
B466(2) 1
B467(2) 1
B468(2) 1
B469(2) 0
B470(2) 0
B471(2) 0
B472(2) 1
B473(2) 1
B474(2) 1
B475(2) 0
B476(2) 0
B477(2) 0
B478(2) 0
B479(2) 1
B480(2) 0
B481(2) 0
B482(2) 0
B483(2) 0
B484(2) 0
B485(2) 0
B486(2) 0
B487(2) 0
C488(1) 0
C489(1) 1
C490(1) 0
C491(1) 0
C492(1) 0
C493(1) 1
C494(1) 0
C495(1) 0
C496(1) 0
C497(1) 0
C498(1) 1
C499(1) 0
C500(1) 0
C501(1) 1
C502(1) 0
C503(1) 0
C504(1) 0
C505(1) 0
C506(1) 0.5
C507(1) 0.5
C508(1) 0
C509(1) 0
C510(1) 0
C511(1) 1
C512(1) 0
C513(1) 0
C514(1) 0
C515(1) 1
C516(1) 0
C517(1) 0
C518(1) 0
C519(1) 1
C520(1) 0
C521(1) 0
C522(1) 0
C523(1) 1
C524(1) 0
C525(1) 1
C526(1) 0
C527(1) 0
C528(1) 0.5
C529(1) 0.5
C530(1) 0
C531(1) 0
C532(1) 1.5
C533(1) 0.5
C534(1) 0
C535(1) 0
C536(1) 0.5
C537(1) 0
C538(1) 0
C539(1) 1.5
C540(1) 1
C541(1) 0
C542(1) 0.5
C543(1) 0.5
C544(1) 0.5
C545(1) 0
C546(1) 0.5
C547(1) 1
C548(1) 0
C549(1) 1
C550(1) 0
C551(1) 0
C552(1) 1.5
C553(1) 0
C554(1) 0.5
C555(1) 0
C556(1) 1.5
C557(1) 0
C558(1) 0.5
C559(1) 0
C560(1) 0
C561(1) 0
C562(1) 1
C563(1) 0
C564(1) 0.5
C565(1) 0
C566(1) 0
C567(1) 0.5
C568(1) 1.5
C569(1) 0.5
C570(1) 0
C571(1) 0
C572(1) 0
C573(1) 1
C574(1) 0
C575(1) 0
C576(1) 3
C577(1) 0
C578(1) 0
C579(1) 0
C580(1) 1.5
C581(1) 0.5
C582(1) 0
C583(1) 0
C584(1) 1
C585(1) 0
C586(1) 0
C587(1) 0
C588(1) 0.5
C589(1) 0
C590(1) 1.5
C591(1) 0
C592(1) 1.5
C593(1) 0
C594(1) 0.5
C595(1) 0
C596(1) 0.5
C597(1) 0
C598(1) 0.5
C599(1) 0
B600(3) 0
B601(3) 1
B602(3) 0
B603(3) 0
B604(3) 0
B605(3) 0
B606(3) 0
B607(3) 0
B608(3) 0
B609(3) 1
B610(3) 0
B611(3) 0
B612(3) 0
B613(3) 1
B614(3) 0
B615(3) 0
B616(3) 0
B617(3) 0
B618(3) 0
B619(3) 1
B620(3) 0
B621(3) 0
B622(3) 0
B623(3) 1
B624(3) 0
B625(3) 0
B626(3) 0
B627(3) 1
B628(3) 0
B629(3) 0
B630(3) 0
B631(3) 0
B632(3) 0
B633(3) 0
B634(3) 0
B635(3) 1
B636(3) 0
B637(3) 1
B638(3) 0
B639(3) 0
B640(3) 1
B641(3) 0
B642(3) 0
B643(3) 0
B644(3) 0
B645(3) 0
B646(3) 0
B647(3) 0
B648(3) 0
B649(3) 0
B650(3) 0
B651(3) 0
B652(3) 1
B653(3) 0
B654(3) 0
B655(3) 0
B656(3) 0
B657(3) 0
B658(3) 0
B659(3) 0
B660(3) 1
B661(3) 0
B662(3) 0
B663(3) 0
B664(3) 0
B665(3) 0
B666(3) 0
B667(3) 0
B668(3) 0
B669(3) 0
B670(3) 0
B671(3) 0
B672(3) 1
B673(3) 0
B674(3) 0
B675(3) 0
B676(3) 1
B677(3) 0
B678(3) 0
B679(3) 0
B680(3) 0
B681(3) 0
B682(3) 0
B683(3) 0
B684(3) 0
B685(3) 0
B686(3) 0
B687(3) 0
B688(3) 0
B689(3) 0
B690(3) 0
B691(3) 0
B692(3) 0
B693(3) 0
B694(3) 0
B695(3) 0
B696(3) 1
B697(3) 0
B698(3) 0
B699(3) 0
B700(3) 0
B701(3) 0
B702(3) 0
B703(3) 0
B704(3) 0
B705(3) 0
B706(3) 0
B707(3) 0
B708(3) 0
B709(3) 0
B710(3) 0
B711(3) 0
B712(3) 0
B713(3) 0
B714(3) 0
B715(3) 0
B716(3) 0
B717(3) 0
B718(3) 0
B719(3) 0
B720(3) 0
B721(3) 0
B722(3) 0
B723(3) 0
B724(3) 0
B725(3) 0
B726(3) 0
B727(3) 0
B728(3) 0
B729(3) 0
B730(3) 0
B731(3) 0
B732(3) 0
B733(3) 0
B734(3) 0
B735(3) 0
B736(3) 0
B737(3) 0
B738(3) 0
B739(3) 0
